p edge 11 38
e 1 5
e 1 2
e 1 7
e 1 11
e 2 3
e 2 1
e 3 6
e 3 4
e 3 5
e 3 8
e 3 2
e 4 5
e 4 6
e 4 3
e 5 6
e 5 8
e 5 4
e 5 3
e 5 1
e 6 7
e 6 9
e 6 5
e 6 4
e 6 3
e 7 11
e 7 6
e 7 1
e 8 9
e 8 10
e 8 5
e 8 3
e 9 10
e 9 8
e 9 6
e 10 9
e 10 8
e 11 7
e 11 1
